JulietBench/Juliet_Based_Patch_Bench/FFmpeg/CWE-189-Numeric-Errors/CVE_2014_9602_93a5a16f136d095d23610f57bdad10ba88120fba/solverxface_decode_frame_Snippet.smt2
; benchmark generated from python API
(set-info :status unknown)
(declare-fun R () (_ BitVec 32))
(declare-fun rdi () (_ BitVec 64))
(declare-fun rsi () (_ BitVec 64))
(assert
 (let (($x129 (= (_ bv4294967295 32) R)))
 (let ((?x6 ((_ extract 31 0) rdi)))
 (let ((?x11 (bvadd (_ bv1 32) ?x6)))
 (let (($x96 (bvslt (_ bv666 32) ?x11)))
 (let (($x136 (and $x96 $x129)))
 (let (($x127 (= (_ bv0 32) R)))
 (let (($x83 (bvsge (_ bv666 32) ?x11)))
 (let ((?x8 ((_ extract 31 0) rsi)))
 (let (($x103 (bvsge (_ bv545 32) ?x8)))
 (let (($x135 (and $x103 $x83 $x127)))
 (let (($x118 (bvslt (_ bv545 32) ?x8)))
 (let (($x134 (and $x118 $x83 $x129)))
 (let (($x137 (or $x134 $x135 $x136)))
 (let (($x140 (not $x137)))
 (let (($x49 (bvslt (_ bv704 32) ?x11)))
 (let (($x132 (and $x49 $x129)))
 (let (($x16 (bvsge (_ bv704 32) ?x11)))
 (let (($x51 (bvsge (_ bv575 32) ?x8)))
 (let (($x131 (and $x51 $x16 $x127)))
 (let (($x72 (bvslt (_ bv575 32) ?x8)))
 (let (($x122 (and $x72 $x16 $x129)))
 (let (($x133 (or $x122 $x131 $x132)))
 (let (($x139 (not $x133)))
 (let (($x141 (and $x139 $x140)))
 (let (($x138 (and $x133 $x137)))
 (let (($x142 (or $x138 $x141)))
 (not $x142))))))))))))))))))))))))))))
(check-sat)
